p cnf 19 46
1 2 0
-1 -2 0
3 4 0
-3 -4 0
5 6 0
-5 -6 0
7 8 0
-7 -8 0
9 10 0
-9 -10 0
11 12 0
-11 -12 0
13 14 15 0
-13 -14 0
-13 -15 0
-14 -15 0
16 17 0
-16 -17 0
18 19 0
-18 -19 0
-1 -3 0
-1 -9 0
-2 -10 0
-1 -11 0
-2 -12 0
-1 -13 0
-2 -15 0
-1 -16 0
-2 -17 0
-3 -11 0
-3 -16 0
-6 -8 0
-6 -10 0
-6 -17 0
-7 -11 0
-8 -12 0
-7 -16 0
-8 -17 0
-9 -13 0
-10 -15 0
-9 -16 0
-10 -17 0
-9 -18 0
-13 -16 0
-15 -17 0
-16 -18 0
